c "607086.clq"
p edge 249 3728
e 1 17
e 1 18
e 1 19
e 1 21
e 1 22
e 1 23
e 1 25
e 1 26
e 1 27
e 1 28
e 1 29
e 1 31
e 1 32
e 1 33
e 1 35
e 1 42
e 1 43
e 1 44
e 1 45
e 1 47
e 1 49
e 1 60
e 1 67
e 1 72
e 1 73
e 1 75
e 1 77
e 1 83
e 1 104
e 1 112
e 1 123
e 1 126
e 1 133
e 1 137
e 1 148
e 1 165
e 1 167
e 1 168
e 1 169
e 1 177
e 1 178
e 1 180
e 1 189
e 1 191
e 1 194
e 1 197
e 1 203
e 1 205
e 1 209
e 1 219
e 1 224
e 1 239
e 1 241
e 1 242
e 2 17
e 2 18
e 2 19
e 2 21
e 2 24
e 2 26
e 2 27
e 2 28
e 2 29
e 2 30
e 2 31
e 2 32
e 2 33
e 2 40
e 2 41
e 2 43
e 2 44
e 2 45
e 2 48
e 2 56
e 2 76
e 2 78
e 2 79
e 2 80
e 2 82
e 2 89
e 2 90
e 2 92
e 2 93
e 2 107
e 2 111
e 2 112
e 2 115
e 2 120
e 2 124
e 2 126
e 2 130
e 2 134
e 2 138
e 2 141
e 2 144
e 2 152
e 2 154
e 2 162
e 2 165
e 2 166
e 2 171
e 2 175
e 2 182
e 2 187
e 2 192
e 2 193
e 2 205
e 2 208
e 2 210
e 2 228
e 2 231
e 2 239
e 2 242
e 2 245
e 2 246
e 3 17
e 3 18
e 3 19
e 3 20
e 3 21
e 3 22
e 3 23
e 3 24
e 3 25
e 3 26
e 3 27
e 3 28
e 3 29
e 3 31
e 3 33
e 3 36
e 3 37
e 3 39
e 3 42
e 3 45
e 3 46
e 3 53
e 3 55
e 3 56
e 3 66
e 3 69
e 3 73
e 3 89
e 3 92
e 3 95
e 3 106
e 3 116
e 3 128
e 3 129
e 3 134
e 3 140
e 3 142
e 3 161
e 3 168
e 3 177
e 3 188
e 3 199
e 3 204
e 3 217
e 3 222
e 3 223
e 3 225
e 3 232
e 3 237
e 3 238
e 4 17
e 4 18
e 4 20
e 4 21
e 4 22
e 4 24
e 4 28
e 4 31
e 4 32
e 4 67
e 4 84
e 4 100
e 4 104
e 4 109
e 4 114
e 4 122
e 4 127
e 4 153
e 4 219
e 4 225
e 4 243
e 4 248
e 5 17
e 5 18
e 5 19
e 5 20
e 5 21
e 5 22
e 5 23
e 5 24
e 5 25
e 5 26
e 5 27
e 5 28
e 5 30
e 5 32
e 5 33
e 5 34
e 5 35
e 5 37
e 5 39
e 5 40
e 5 43
e 5 50
e 5 51
e 5 54
e 5 58
e 5 59
e 5 60
e 5 62
e 5 66
e 5 67
e 5 69
e 5 75
e 5 77
e 5 78
e 5 81
e 5 87
e 5 97
e 5 98
e 5 111
e 5 117
e 5 121
e 5 126
e 5 131
e 5 132
e 5 139
e 5 140
e 5 144
e 5 147
e 5 159
e 5 164
e 5 168
e 5 169
e 5 174
e 5 175
e 5 177
e 5 183
e 5 184
e 5 191
e 5 212
e 5 215
e 5 216
e 5 218
e 5 230
e 5 247
e 6 17
e 6 18
e 6 19
e 6 20
e 6 23
e 6 24
e 6 25
e 6 27
e 6 28
e 6 30
e 6 31
e 6 32
e 6 33
e 6 34
e 6 37
e 6 38
e 6 41
e 6 43
e 6 44
e 6 45
e 6 46
e 6 47
e 6 51
e 6 56
e 6 60
e 6 62
e 6 65
e 6 67
e 6 68
e 6 79
e 6 81
e 6 82
e 6 84
e 6 90
e 6 92
e 6 97
e 6 115
e 6 143
e 6 152
e 6 157
e 6 166
e 6 171
e 6 179
e 6 184
e 6 187
e 6 204
e 6 233
e 7 17
e 7 18
e 7 19
e 7 21
e 7 22
e 7 23
e 7 24
e 7 25
e 7 26
e 7 27
e 7 34
e 7 36
e 7 38
e 7 41
e 7 47
e 7 49
e 7 50
e 7 54
e 7 57
e 7 58
e 7 62
e 7 73
e 7 74
e 7 107
e 7 121
e 7 153
e 7 160
e 7 161
e 7 164
e 7 168
e 7 174
e 7 176
e 7 189
e 7 225
e 7 248
e 8 17
e 8 18
e 8 20
e 8 21
e 8 23
e 8 31
e 8 39
e 8 40
e 8 63
e 8 65
e 8 75
e 8 77
e 8 81
e 8 84
e 8 93
e 8 111
e 8 117
e 8 118
e 8 130
e 8 136
e 8 234
e 8 236
e 8 247
e 9 17
e 9 19
e 9 20
e 9 21
e 9 22
e 9 23
e 9 24
e 9 25
e 9 26
e 9 38
e 9 41
e 9 42
e 9 46
e 9 49
e 9 51
e 9 59
e 9 60
e 9 72
e 9 77
e 9 91
e 9 121
e 9 134
e 9 139
e 9 143
e 9 158
e 9 161
e 9 168
e 9 176
e 9 178
e 9 219
e 9 224
e 9 226
e 9 228
e 9 244
e 10 17
e 10 18
e 10 19
e 10 20
e 10 22
e 10 23
e 10 30
e 10 32
e 10 36
e 10 50
e 10 54
e 10 55
e 10 56
e 10 59
e 10 63
e 10 64
e 10 71
e 10 74
e 10 76
e 10 79
e 10 80
e 10 81
e 10 94
e 10 98
e 10 103
e 10 106
e 10 107
e 10 111
e 10 113
e 10 118
e 10 119
e 10 132
e 10 135
e 10 143
e 10 160
e 10 162
e 10 169
e 10 190
e 10 192
e 10 193
e 10 202
e 10 206
e 10 211
e 10 213
e 10 222
e 10 227
e 10 232
e 10 237
e 10 249
e 11 17
e 11 18
e 11 19
e 11 20
e 11 21
e 11 22
e 11 26
e 11 33
e 11 34
e 11 35
e 11 39
e 11 40
e 11 42
e 11 60
e 11 63
e 11 79
e 11 85
e 11 86
e 11 101
e 11 103
e 11 105
e 11 110
e 11 115
e 11 129
e 11 140
e 11 207
e 11 248
e 12 17
e 12 18
e 12 19
e 12 20
e 12 21
e 12 22
e 12 26
e 12 32
e 12 35
e 12 45
e 12 46
e 12 50
e 12 55
e 12 57
e 12 58
e 12 61
e 12 66
e 12 81
e 12 83
e 12 92
e 12 105
e 12 107
e 12 137
e 12 181
e 12 190
e 12 198
e 12 226
e 13 17
e 13 18
e 13 19
e 13 20
e 13 21
e 13 23
e 13 24
e 13 26
e 13 27
e 13 28
e 13 29
e 13 30
e 13 34
e 13 36
e 13 46
e 13 48
e 13 49
e 13 52
e 13 60
e 13 65
e 13 71
e 13 73
e 13 97
e 13 104
e 13 114
e 13 122
e 13 128
e 13 143
e 13 156
e 13 187
e 13 194
e 13 220
e 13 239
e 14 17
e 14 18
e 14 19
e 14 20
e 14 21
e 14 24
e 14 25
e 14 29
e 14 42
e 14 47
e 14 53
e 14 54
e 14 62
e 14 73
e 14 90
e 14 92
e 14 94
e 14 108
e 14 115
e 14 116
e 14 127
e 14 148
e 14 176
e 14 185
e 14 197
e 14 213
e 15 17
e 15 18
e 15 19
e 15 20
e 15 22
e 15 23
e 15 24
e 15 25
e 15 26
e 15 27
e 15 28
e 15 29
e 15 30
e 15 33
e 15 34
e 15 35
e 15 37
e 15 39
e 15 41
e 15 42
e 15 43
e 15 44
e 15 46
e 15 47
e 15 48
e 15 52
e 15 56
e 15 57
e 15 59
e 15 61
e 15 62
e 15 66
e 15 73
e 15 75
e 15 76
e 15 80
e 15 81
e 15 85
e 15 87
e 15 97
e 15 100
e 15 102
e 15 104
e 15 108
e 15 109
e 15 113
e 15 119
e 15 123
e 15 125
e 15 128
e 15 130
e 15 133
e 15 139
e 15 143
e 15 156
e 15 158
e 15 162
e 15 164
e 15 167
e 15 170
e 15 172
e 15 173
e 15 176
e 15 185
e 15 187
e 15 188
e 15 190
e 15 195
e 15 197
e 15 200
e 15 208
e 15 211
e 15 216
e 15 226
e 15 232
e 15 246
e 15 247
e 16 17
e 16 18
e 16 19
e 16 20
e 16 22
e 16 25
e 16 26
e 16 27
e 16 29
e 16 31
e 16 33
e 16 40
e 16 41
e 16 42
e 16 43
e 16 44
e 16 45
e 16 54
e 16 57
e 16 61
e 16 64
e 16 67
e 16 70
e 16 72
e 16 76
e 16 80
e 16 82
e 16 86
e 16 95
e 16 96
e 16 100
e 16 101
e 16 102
e 16 107
e 16 112
e 16 115
e 16 118
e 16 121
e 16 144
e 16 165
e 16 173
e 16 178
e 16 179
e 16 181
e 16 183
e 16 190
e 16 211
e 16 216
e 16 219
e 16 227
e 16 230
e 16 241
e 16 243
e 16 249
e 17 18
e 17 19
e 17 20
e 17 21
e 17 22
e 17 23
e 17 24
e 17 27
e 17 28
e 17 29
e 17 30
e 17 31
e 17 32
e 17 33
e 17 34
e 17 35
e 17 36
e 17 38
e 17 42
e 17 45
e 17 47
e 17 49
e 17 51
e 17 52
e 17 53
e 17 54
e 17 55
e 17 56
e 17 57
e 17 59
e 17 61
e 17 63
e 17 64
e 17 67
e 17 68
e 17 70
e 17 76
e 17 92
e 17 94
e 17 99
e 17 100
e 17 101
e 17 102
e 17 103
e 17 104
e 17 109
e 17 116
e 17 117
e 17 123
e 17 125
e 17 126
e 17 127
e 17 129
e 17 140
e 17 147
e 17 165
e 17 168
e 17 171
e 17 174
e 17 175
e 17 178
e 17 181
e 17 187
e 17 200
e 17 201
e 17 205
e 17 210
e 17 211
e 17 212
e 17 213
e 17 222
e 17 228
e 18 19
e 18 20
e 18 21
e 18 22
e 18 23
e 18 24
e 18 25
e 18 26
e 18 27
e 18 28
e 18 29
e 18 30
e 18 34
e 18 35
e 18 36
e 18 37
e 18 38
e 18 39
e 18 40
e 18 41
e 18 43
e 18 44
e 18 46
e 18 47
e 18 49
e 18 52
e 18 55
e 18 57
e 18 61
e 18 62
e 18 65
e 18 68
e 18 70
e 18 72
e 18 74
e 18 75
e 18 76
e 18 77
e 18 78
e 18 80
e 18 82
e 18 83
e 18 86
e 18 89
e 18 93
e 18 94
e 18 95
e 18 98
e 18 100
e 18 104
e 18 105
e 18 107
e 18 108
e 18 111
e 18 116
e 18 119
e 18 122
e 18 123
e 18 131
e 18 134
e 18 140
e 18 143
e 18 144
e 18 145
e 18 146
e 18 151
e 18 152
e 18 157
e 18 160
e 18 168
e 18 170
e 18 175
e 18 176
e 18 179
e 18 180
e 18 182
e 18 191
e 18 194
e 18 195
e 18 198
e 18 204
e 18 206
e 18 211
e 18 219
e 18 224
e 18 232
e 18 236
e 18 244
e 19 20
e 19 21
e 19 22
e 19 23
e 19 24
e 19 25
e 19 26
e 19 29
e 19 32
e 19 35
e 19 38
e 19 40
e 19 44
e 19 50
e 19 54
e 19 61
e 19 66
e 19 67
e 19 71
e 19 79
e 19 83
e 19 87
e 19 88
e 19 92
e 19 93
e 19 96
e 19 103
e 19 105
e 19 106
e 19 109
e 19 115
e 19 116
e 19 118
e 19 123
e 19 130
e 19 145
e 19 149
e 19 151
e 19 154
e 19 170
e 19 176
e 19 186
e 19 196
e 19 202
e 19 215
e 19 222
e 19 226
e 19 227
e 19 236
e 19 240
e 19 244
e 19 248
e 20 21
e 20 22
e 20 23
e 20 24
e 20 25
e 20 26
e 20 27
e 20 28
e 20 29
e 20 30
e 20 31
e 20 32
e 20 33
e 20 34
e 20 35
e 20 36
e 20 37
e 20 38
e 20 39
e 20 41
e 20 42
e 20 43
e 20 46
e 20 47
e 20 48
e 20 51
e 20 54
e 20 55
e 20 58
e 20 64
e 20 66
e 20 68
e 20 69
e 20 77
e 20 82
e 20 83
e 20 84
e 20 85
e 20 86
e 20 89
e 20 90
e 20 91
e 20 94
e 20 95
e 20 101
e 20 106
e 20 108
e 20 109
e 20 117
e 20 123
e 20 125
e 20 126
e 20 130
e 20 132
e 20 134
e 20 142
e 20 143
e 20 145
e 20 146
e 20 148
e 20 149
e 20 151
e 20 153
e 20 155
e 20 164
e 20 167
e 20 172
e 20 174
e 20 186
e 20 187
e 20 199
e 20 206
e 20 210
e 20 212
e 20 213
e 20 215
e 20 225
e 20 229
e 20 240
e 20 242
e 20 243
e 21 22
e 21 23
e 21 25
e 21 26
e 21 30
e 21 31
e 21 32
e 21 33
e 21 37
e 21 41
e 21 43
e 21 45
e 21 46
e 21 48
e 21 49
e 21 51
e 21 52
e 21 55
e 21 56
e 21 62
e 21 63
e 21 64
e 21 65
e 21 69
e 21 78
e 21 80
e 21 82
e 21 83
e 21 93
e 21 98
e 21 102
e 21 104
e 21 109
e 21 113
e 21 114
e 21 119
e 21 120
e 21 122
e 21 127
e 21 128
e 21 133
e 21 138
e 21 142
e 21 144
e 21 145
e 21 151
e 21 159
e 21 160
e 21 165
e 21 174
e 21 178
e 21 180
e 21 182
e 21 193
e 21 199
e 21 204
e 21 208
e 21 210
e 21 224
e 21 228
e 21 241
e 21 247
e 22 23
e 22 24
e 22 25
e 22 26
e 22 27
e 22 28
e 22 29
e 22 30
e 22 31
e 22 32
e 22 33
e 22 34
e 22 36
e 22 37
e 22 38
e 22 41
e 22 44
e 22 45
e 22 46
e 22 47
e 22 48
e 22 49
e 22 50
e 22 54
e 22 55
e 22 56
e 22 58
e 22 61
e 22 62
e 22 63
e 22 64
e 22 74
e 22 75
e 22 77
e 22 79
e 22 82
e 22 84
e 22 85
e 22 86
e 22 89
e 22 92
e 22 96
e 22 97
e 22 98
e 22 101
e 22 102
e 22 104
e 22 111
e 22 114
e 22 117
e 22 118
e 22 119
e 22 125
e 22 126
e 22 128
e 22 129
e 22 136
e 22 141
e 22 142
e 22 147
e 22 150
e 22 155
e 22 158
e 22 166
e 22 167
e 22 184
e 22 190
e 22 202
e 22 203
e 22 207
e 22 211
e 22 218
e 22 220
e 22 221
e 22 222
e 22 224
e 22 226
e 22 227
e 22 229
e 23 24
e 23 25
e 23 27
e 23 28
e 23 31
e 23 32
e 23 34
e 23 35
e 23 36
e 23 45
e 23 48
e 23 49
e 23 51
e 23 52
e 23 54
e 23 57
e 23 61
e 23 62
e 23 70
e 23 71
e 23 72
e 23 77
e 23 84
e 23 87
e 23 89
e 23 96
e 23 112
e 23 120
e 23 121
e 23 124
e 23 126
e 23 138
e 23 145
e 23 149
e 23 150
e 23 152
e 23 156
e 23 158
e 23 162
e 23 169
e 23 180
e 23 187
e 23 191
e 23 198
e 23 199
e 23 206
e 23 210
e 23 215
e 23 216
e 23 226
e 23 233
e 23 237
e 23 238
e 23 239
e 23 240
e 23 241
e 23 245
e 23 246
e 24 25
e 24 27
e 24 28
e 24 29
e 24 30
e 24 31
e 24 32
e 24 34
e 24 35
e 24 36
e 24 37
e 24 39
e 24 40
e 24 41
e 24 45
e 24 46
e 24 50
e 24 51
e 24 52
e 24 54
e 24 55
e 24 57
e 24 59
e 24 60
e 24 63
e 24 64
e 24 65
e 24 67
e 24 68
e 24 69
e 24 71
e 24 75
e 24 76
e 24 77
e 24 81
e 24 83
e 24 85
e 24 89
e 24 91
e 24 93
e 24 97
e 24 103
e 24 105
e 24 106
e 24 107
e 24 110
e 24 113
e 24 124
e 24 131
e 24 133
e 24 134
e 24 137
e 24 139
e 24 141
e 24 145
e 24 151
e 24 152
e 24 161
e 24 164
e 24 165
e 24 170
e 24 179
e 24 184
e 24 185
e 24 190
e 24 193
e 24 204
e 24 205
e 24 222
e 24 238
e 25 27
e 25 28
e 25 29
e 25 31
e 25 32
e 25 33
e 25 34
e 25 35
e 25 36
e 25 37
e 25 43
e 25 45
e 25 53
e 25 58
e 25 61
e 25 65
e 25 66
e 25 69
e 25 70
e 25 71
e 25 72
e 25 78
e 25 82
e 25 86
e 25 87
e 25 89
e 25 93
e 25 95
e 25 96
e 25 99
e 25 100
e 25 102
e 25 105
e 25 110
e 25 117
e 25 123
e 25 128
e 25 129
e 25 135
e 25 136
e 25 141
e 25 144
e 25 146
e 25 147
e 25 150
e 25 151
e 25 154
e 25 156
e 25 159
e 25 174
e 25 179
e 25 186
e 25 192
e 25 201
e 25 205
e 25 213
e 25 223
e 25 225
e 25 231
e 25 232
e 25 236
e 25 239
e 25 244
e 26 29
e 26 30
e 26 33
e 26 36
e 26 37
e 26 38
e 26 39
e 26 48
e 26 50
e 26 51
e 26 53
e 26 54
e 26 55
e 26 63
e 26 64
e 26 68
e 26 72
e 26 73
e 26 79
e 26 80
e 26 133
e 26 150
e 26 153
e 26 157
e 26 158
e 26 168
e 26 169
e 26 172
e 26 175
e 26 184
e 26 187
e 26 188
e 26 193
e 26 194
e 26 201
e 26 207
e 26 214
e 26 221
e 26 226
e 26 234
e 27 28
e 27 29
e 27 30
e 27 31
e 27 33
e 27 34
e 27 35
e 27 36
e 27 37
e 27 38
e 27 39
e 27 40
e 27 41
e 27 42
e 27 44
e 27 46
e 27 47
e 27 48
e 27 49
e 27 50
e 27 52
e 27 54
e 27 56
e 27 60
e 27 62
e 27 63
e 27 66
e 27 69
e 27 71
e 27 75
e 27 82
e 27 84
e 27 85
e 27 87
e 27 98
e 27 100
e 27 106
e 27 107
e 27 114
e 27 116
e 27 117
e 27 120
e 27 123
e 27 125
e 27 127
e 27 130
e 27 134
e 27 137
e 27 141
e 27 142
e 27 149
e 27 155
e 27 164
e 27 165
e 27 166
e 27 168
e 27 170
e 27 171
e 27 177
e 27 178
e 27 181
e 27 182
e 27 190
e 27 191
e 27 196
e 27 199
e 27 201
e 27 203
e 27 209
e 27 224
e 27 225
e 27 233
e 27 237
e 27 244
e 27 246
e 28 30
e 28 31
e 28 34
e 28 36
e 28 37
e 28 38
e 28 39
e 28 42
e 28 45
e 28 48
e 28 49
e 28 51
e 28 52
e 28 53
e 28 56
e 28 57
e 28 58
e 28 59
e 28 61
e 28 64
e 28 65
e 28 67
e 28 68
e 28 70
e 28 74
e 28 75
e 28 81
e 28 86
e 28 92
e 28 101
e 28 104
e 28 106
e 28 111
e 28 113
e 28 114
e 28 116
e 28 120
e 28 125
e 28 129
e 28 139
e 28 142
e 28 155
e 28 158
e 28 159
e 28 168
e 28 171
e 28 172
e 28 177
e 28 182
e 28 190
e 28 196
e 28 217
e 28 220
e 28 224
e 28 227
e 28 239
e 29 30
e 29 34
e 29 37
e 29 38
e 29 39
e 29 40
e 29 46
e 29 47
e 29 52
e 29 55
e 29 56
e 29 59
e 29 61
e 29 62
e 29 71
e 29 72
e 29 77
e 29 80
e 29 82
e 29 83
e 29 88
e 29 91
e 29 92
e 29 102
e 29 105
e 29 115
e 29 120
e 29 121
e 29 124
e 29 125
e 29 126
e 29 137
e 29 141
e 29 149
e 29 153
e 29 159
e 29 162
e 29 163
e 29 166
e 29 170
e 29 171
e 29 179
e 29 186
e 29 194
e 29 204
e 29 213
e 29 229
e 29 232
e 29 233
e 30 32
e 30 33
e 30 40
e 30 42
e 30 43
e 30 47
e 30 48
e 30 51
e 30 53
e 30 55
e 30 56
e 30 57
e 30 59
e 30 60
e 30 61
e 30 65
e 30 68
e 30 81
e 30 86
e 30 87
e 30 89
e 30 101
e 30 102
e 30 113
e 30 116
e 30 119
e 30 141
e 30 149
e 30 161
e 30 178
e 30 187
e 30 195
e 30 197
e 30 206
e 30 227
e 30 229
e 30 240
e 31 37
e 31 40
e 31 41
e 31 44
e 31 50
e 31 51
e 31 58
e 31 59
e 31 60
e 31 63
e 31 64
e 31 67
e 31 69
e 31 75
e 31 76
e 31 82
e 31 95
e 31 99
e 31 110
e 31 119
e 31 148
e 31 158
e 31 163
e 31 169
e 31 235
e 32 35
e 32 38
e 32 39
e 32 40
e 32 41
e 32 42
e 32 44
e 32 49
e 32 53
e 32 56
e 32 63
e 32 67
e 32 73
e 32 76
e 32 78
e 32 81
e 32 83
e 32 84
e 32 90
e 32 92
e 32 94
e 32 95
e 32 100
e 32 102
e 32 106
e 32 109
e 32 111
e 32 115
e 32 119
e 32 128
e 32 133
e 32 139
e 32 141
e 32 145
e 32 150
e 32 152
e 32 159
e 32 161
e 32 163
e 32 172
e 32 180
e 32 192
e 32 193
e 32 215
e 32 216
e 32 236
e 32 244
e 33 35
e 33 36
e 33 37
e 33 38
e 33 39
e 33 40
e 33 41
e 33 42
e 33 43
e 33 51
e 33 52
e 33 53
e 33 55
e 33 57
e 33 60
e 33 62
e 33 64
e 33 67
e 33 68
e 33 70
e 33 71
e 33 77
e 33 79
e 33 82
e 33 84
e 33 87
e 33 90
e 33 91
e 33 92
e 33 93
e 33 94
e 33 96
e 33 97
e 33 99
e 33 103
e 33 115
e 33 116
e 33 119
e 33 120
e 33 121
e 33 123
e 33 128
e 33 130
e 33 134
e 33 135
e 33 140
e 33 143
e 33 154
e 33 158
e 33 166
e 33 167
e 33 169
e 33 177
e 33 180
e 33 181
e 33 190
e 33 195
e 33 197
e 33 202
e 33 207
e 33 212
e 33 215
e 33 216
e 33 225
e 33 226
e 33 236
e 33 238
e 33 240
e 33 241
e 33 244
e 33 248
e 34 35
e 34 36
e 34 38
e 34 39
e 34 42
e 34 43
e 34 45
e 34 50
e 34 57
e 34 59
e 34 70
e 34 71
e 34 74
e 34 78
e 34 79
e 34 83
e 34 84
e 34 85
e 34 88
e 34 99
e 34 102
e 34 104
e 34 106
e 34 110
e 34 114
e 34 121
e 34 131
e 34 132
e 34 142
e 34 144
e 34 146
e 34 151
e 34 182
e 34 189
e 34 191
e 34 199
e 34 205
e 34 208
e 34 213
e 34 220
e 34 223
e 34 229
e 34 246
e 35 47
e 35 48
e 35 49
e 35 52
e 35 58
e 35 73
e 35 74
e 35 84
e 35 87
e 35 100
e 35 106
e 35 107
e 35 110
e 35 112
e 35 134
e 35 135
e 35 136
e 35 141
e 35 149
e 35 153
e 35 154
e 35 161
e 35 163
e 35 170
e 35 183
e 35 194
e 35 205
e 35 222
e 35 225
e 35 228
e 35 240
e 35 245
e 35 248
e 36 38
e 36 40
e 36 43
e 36 44
e 36 45
e 36 49
e 36 50
e 36 52
e 36 54
e 36 58
e 36 60
e 36 61
e 36 70
e 36 71
e 36 74
e 36 88
e 36 99
e 36 105
e 36 107
e 36 108
e 36 114
e 36 136
e 36 137
e 36 146
e 36 147
e 36 157
e 36 163
e 36 197
e 36 200
e 36 206
e 36 210
e 36 242
e 36 248
e 37 39
e 37 43
e 37 50
e 37 51
e 37 53
e 37 63
e 37 70
e 37 76
e 37 79
e 37 82
e 37 84
e 37 96
e 37 101
e 37 102
e 37 105
e 37 138
e 37 147
e 37 189
e 37 198
e 37 208
e 37 214
e 37 235
e 37 239
e 37 241
e 38 50
e 38 56
e 38 64
e 38 65
e 38 69
e 38 77
e 38 78
e 38 100
e 38 109
e 38 118
e 38 128
e 38 131
e 38 164
e 38 165
e 38 173
e 38 183
e 38 185
e 38 209
e 38 222
e 38 234
e 38 238
e 39 40
e 39 44
e 39 46
e 39 48
e 39 51
e 39 53
e 39 55
e 39 59
e 39 60
e 39 63
e 39 72
e 39 85
e 39 93
e 39 95
e 39 101
e 39 103
e 39 110
e 39 112
e 39 116
e 39 122
e 39 126
e 39 129
e 39 131
e 39 140
e 39 143
e 39 148
e 39 162
e 39 164
e 39 171
e 39 174
e 39 177
e 39 180
e 39 186
e 39 189
e 39 192
e 39 202
e 39 206
e 39 238
e 39 240
e 39 242
e 39 244
e 39 249
e 40 41
e 40 42
e 40 43
e 40 44
e 40 47
e 40 57
e 40 58
e 40 67
e 40 72
e 40 74
e 40 76
e 40 83
e 40 86
e 40 88
e 40 94
e 40 96
e 40 100
e 40 101
e 40 102
e 40 105
e 40 108
e 40 115
e 40 120
e 40 124
e 40 125
e 40 135
e 40 136
e 40 142
e 40 144
e 40 159
e 40 161
e 40 165
e 40 170
e 40 172
e 40 173
e 40 178
e 40 180
e 40 182
e 40 188
e 40 196
e 40 198
e 40 202
e 40 207
e 40 208
e 40 210
e 40 214
e 40 220
e 40 228
e 40 230
e 40 234
e 40 249
e 41 44
e 41 45
e 41 48
e 41 54
e 41 56
e 41 64
e 41 66
e 41 91
e 41 94
e 41 96
e 41 111
e 41 117
e 41 120
e 41 122
e 41 132
e 41 138
e 41 144
e 41 145
e 41 147
e 41 183
e 41 198
e 41 211
e 41 214
e 41 222
e 41 236
e 41 241
e 41 247
e 42 44
e 42 46
e 42 66
e 42 68
e 42 74
e 42 75
e 42 81
e 42 88
e 42 110
e 42 129
e 42 130
e 42 139
e 42 149
e 42 152
e 42 160
e 42 166
e 42 173
e 42 175
e 42 178
e 42 185
e 42 198
e 42 215
e 42 237
e 42 240
e 42 241
e 43 47
e 43 52
e 43 53
e 43 58
e 43 65
e 43 69
e 43 79
e 43 80
e 43 94
e 43 106
e 43 125
e 43 127
e 43 131
e 43 136
e 43 143
e 43 149
e 43 157
e 43 172
e 43 174
e 43 183
e 43 207
e 43 215
e 43 233
e 43 244
e 43 247
e 44 46
e 44 47
e 44 52
e 44 58
e 44 60
e 44 65
e 44 70
e 44 71
e 44 73
e 44 80
e 44 86
e 44 90
e 44 92
e 44 93
e 44 99
e 44 113
e 44 120
e 44 126
e 44 127
e 44 130
e 44 132
e 44 139
e 44 140
e 44 144
e 44 153
e 44 155
e 44 156
e 44 161
e 44 166
e 44 182
e 44 192
e 44 200
e 44 207
e 44 228
e 44 237
e 44 249
e 45 48
e 45 53
e 45 65
e 45 75
e 45 83
e 45 85
e 45 95
e 45 96
e 45 98
e 45 102
e 45 104
e 45 106
e 45 120
e 45 127
e 45 139
e 45 150
e 45 180
e 45 195
e 45 203
e 45 219
e 45 233
e 45 242
e 46 48
e 46 50
e 46 59
e 46 63
e 46 65
e 46 68
e 46 70
e 46 73
e 46 76
e 46 84
e 46 87
e 46 88
e 46 89
e 46 91
e 46 94
e 46 98
e 46 104
e 46 105
e 46 118
e 46 122
e 46 124
e 46 130
e 46 137
e 46 143
e 46 145
e 46 148
e 46 150
e 46 157
e 46 158
e 46 184
e 46 193
e 46 197
e 46 198
e 46 202
e 46 208
e 46 219
e 46 223
e 46 225
e 46 226
e 46 233
e 46 236
e 47 49
e 47 51
e 47 52
e 47 57
e 47 58
e 47 70
e 47 71
e 47 76
e 47 78
e 47 80
e 47 88
e 47 90
e 47 92
e 47 99
e 47 105
e 47 122
e 47 124
e 47 131
e 47 132
e 47 139
e 47 144
e 47 150
e 47 154
e 47 168
e 47 174
e 47 176
e 47 177
e 47 183
e 47 184
e 47 188
e 47 209
e 47 220
e 47 225
e 47 244
e 48 49
e 48 50
e 48 53
e 48 56
e 48 59
e 48 62
e 48 68
e 48 69
e 48 71
e 48 73
e 48 76
e 48 78
e 48 79
e 48 82
e 48 88
e 48 94
e 48 100
e 48 103
e 48 136
e 48 143
e 48 150
e 48 151
e 48 152
e 48 154
e 48 156
e 48 158
e 48 167
e 48 183
e 48 200
e 48 204
e 48 227
e 48 232
e 48 242
e 48 247
e 49 54
e 49 58
e 49 66
e 49 68
e 49 70
e 49 72
e 49 77
e 49 79
e 49 84
e 49 90
e 49 95
e 49 96
e 49 124
e 49 128
e 49 135
e 49 154
e 49 159
e 49 193
e 49 206
e 49 226
e 49 246
e 50 53
e 50 57
e 50 58
e 50 60
e 50 62
e 50 77
e 50 78
e 50 82
e 50 83
e 50 84
e 50 88
e 50 89
e 50 91
e 50 103
e 50 119
e 50 128
e 50 134
e 50 135
e 50 138
e 50 139
e 50 143
e 50 156
e 50 161
e 50 179
e 50 187
e 50 188
e 50 189
e 50 214
e 50 230
e 51 66
e 51 67
e 51 72
e 51 78
e 51 81
e 51 87
e 51 95
e 51 97
e 51 108
e 51 111
e 51 127
e 51 154
e 51 157
e 51 163
e 51 171
e 51 172
e 51 177
e 51 197
e 51 214
e 51 221
e 51 227
e 52 53
e 52 55
e 52 86
e 52 89
e 52 103
e 52 106
e 52 118
e 52 124
e 52 125
e 52 138
e 52 139
e 52 153
e 52 159
e 52 161
e 52 176
e 52 181
e 52 185
e 52 193
e 52 204
e 52 220
e 52 231
e 52 239
e 52 240
e 52 243
e 53 57
e 53 59
e 53 62
e 53 64
e 53 68
e 53 71
e 53 72
e 53 73
e 53 80
e 53 87
e 53 98
e 53 99
e 53 109
e 53 114
e 53 122
e 53 125
e 53 129
e 53 141
e 53 143
e 53 199
e 53 203
e 53 206
e 53 209
e 53 228
e 53 229
e 53 236
e 53 239
e 53 247
e 54 55
e 54 60
e 54 73
e 54 77
e 54 81
e 54 85
e 54 107
e 54 119
e 54 122
e 54 138
e 54 148
e 54 158
e 54 162
e 54 169
e 54 191
e 54 203
e 54 210
e 54 218
e 54 230
e 54 236
e 54 241
e 55 59
e 55 65
e 55 66
e 55 68
e 55 85
e 55 90
e 55 94
e 55 98
e 55 100
e 55 101
e 55 113
e 55 114
e 55 118
e 55 119
e 55 138
e 55 149
e 55 176
e 55 178
e 55 179
e 55 188
e 55 192
e 55 196
e 55 201
e 55 204
e 55 215
e 55 217
e 55 220
e 55 224
e 56 61
e 56 62
e 56 63
e 56 72
e 56 104
e 56 108
e 56 115
e 56 118
e 56 169
e 56 173
e 56 204
e 56 234
e 56 237
e 57 64
e 57 66
e 57 69
e 57 75
e 57 97
e 57 99
e 57 103
e 57 108
e 57 109
e 57 112
e 57 120
e 57 123
e 57 131
e 57 145
e 57 155
e 57 157
e 57 166
e 57 175
e 57 183
e 57 185
e 57 192
e 57 195
e 57 207
e 57 214
e 57 222
e 57 229
e 58 67
e 58 69
e 58 70
e 58 74
e 58 80
e 58 82
e 58 87
e 58 89
e 58 90
e 58 93
e 58 107
e 58 109
e 58 118
e 58 123
e 58 125
e 58 126
e 58 133
e 58 159
e 58 179
e 58 180
e 58 183
e 58 195
e 58 197
e 58 205
e 58 216
e 58 221
e 59 61
e 59 63
e 59 69
e 59 74
e 59 78
e 59 91
e 59 98
e 59 99
e 59 106
e 59 108
e 59 109
e 59 110
e 59 116
e 59 133
e 59 137
e 59 140
e 59 151
e 59 152
e 59 156
e 59 175
e 59 185
e 59 204
e 59 217
e 59 219
e 59 221
e 59 241
e 59 244
e 60 61
e 60 66
e 60 71
e 60 86
e 60 88
e 60 103
e 60 117
e 60 144
e 60 150
e 60 152
e 60 158
e 60 160
e 60 175
e 60 186
e 60 191
e 60 205
e 60 208
e 60 230
e 60 234
e 60 237
e 60 239
e 60 244
e 61 65
e 61 68
e 61 70
e 61 73
e 61 74
e 61 78
e 61 89
e 61 91
e 61 92
e 61 111
e 61 115
e 61 119
e 61 120
e 61 121
e 61 131
e 61 132
e 61 138
e 61 147
e 61 156
e 61 157
e 61 160
e 61 161
e 61 164
e 61 166
e 61 168
e 61 170
e 61 173
e 61 180
e 61 191
e 61 192
e 61 196
e 61 198
e 61 199
e 61 200
e 61 203
e 61 210
e 61 214
e 61 223
e 61 242
e 62 88
e 62 91
e 62 93
e 62 109
e 62 148
e 62 149
e 62 153
e 62 190
e 62 195
e 62 214
e 62 216
e 62 217
e 63 64
e 63 116
e 63 140
e 63 195
e 63 230
e 63 237
e 64 66
e 64 75
e 64 95
e 64 99
e 64 101
e 64 104
e 64 110
e 64 111
e 64 121
e 64 122
e 64 131
e 64 132
e 64 135
e 64 142
e 64 155
e 64 186
e 64 201
e 64 215
e 64 240
e 65 69
e 65 72
e 65 75
e 65 79
e 65 80
e 65 83
e 65 85
e 65 98
e 65 105
e 65 108
e 65 109
e 65 111
e 65 114
e 65 133
e 65 155
e 65 156
e 65 159
e 65 160
e 65 171
e 65 172
e 65 191
e 65 199
e 65 201
e 65 208
e 65 219
e 65 232
e 65 247
e 65 249
e 66 67
e 66 73
e 66 74
e 66 91
e 66 101
e 66 103
e 66 108
e 66 109
e 66 120
e 66 142
e 66 146
e 66 154
e 66 160
e 66 164
e 66 173
e 66 192
e 66 199
e 66 200
e 66 202
e 66 220
e 66 226
e 67 69
e 67 72
e 67 78
e 67 81
e 67 87
e 67 88
e 67 91
e 67 95
e 67 102
e 67 111
e 67 113
e 67 119
e 67 123
e 67 136
e 67 137
e 67 148
e 67 154
e 67 189
e 67 200
e 67 240
e 67 245
e 67 246
e 68 75
e 68 78
e 68 85
e 68 86
e 68 105
e 68 110
e 68 117
e 68 132
e 68 156
e 68 167
e 68 182
e 68 185
e 68 199
e 68 207
e 68 247
e 69 74
e 69 77
e 69 81
e 69 83
e 69 97
e 69 113
e 69 120
e 69 122
e 69 125
e 69 130
e 69 132
e 69 136
e 69 160
e 69 163
e 69 166
e 69 168
e 69 174
e 69 200
e 69 209
e 69 212
e 69 214
e 69 225
e 70 90
e 70 117
e 70 127
e 70 184
e 70 187
e 70 215
e 70 217
e 71 85
e 71 86
e 71 99
e 71 115
e 71 128
e 71 140
e 71 146
e 71 147
e 71 184
e 71 197
e 71 200
e 71 211
e 71 212
e 72 88
e 72 112
e 72 114
e 72 116
e 72 147
e 72 162
e 72 188
e 72 193
e 72 203
e 72 228
e 72 229
e 72 230
e 72 231
e 72 236
e 72 240
e 72 249
e 73 74
e 73 87
e 73 106
e 73 108
e 73 144
e 73 148
e 73 171
e 73 185
e 74 76
e 74 86
e 74 90
e 74 91
e 74 96
e 74 115
e 74 126
e 74 129
e 74 134
e 74 141
e 74 147
e 74 152
e 74 153
e 74 190
e 74 196
e 74 203
e 74 209
e 74 215
e 74 221
e 74 227
e 75 76
e 75 83
e 75 112
e 75 115
e 75 122
e 75 135
e 75 159
e 75 172
e 75 180
e 75 193
e 75 216
e 75 222
e 76 79
e 76 90
e 76 96
e 76 105
e 76 129
e 76 141
e 76 149
e 76 151
e 76 164
e 76 167
e 76 170
e 76 177
e 76 182
e 76 185
e 76 194
e 76 195
e 76 202
e 76 203
e 76 217
e 76 232
e 76 235
e 76 246
e 77 93
e 77 119
e 77 126
e 77 133
e 77 135
e 77 150
e 77 176
e 77 206
e 78 79
e 78 80
e 78 92
e 78 103
e 78 115
e 78 149
e 78 151
e 78 153
e 78 169
e 78 203
e 78 234
e 79 80
e 79 81
e 79 94
e 79 98
e 79 99
e 79 100
e 79 107
e 79 108
e 79 110
e 79 113
e 79 124
e 79 135
e 79 137
e 79 157
e 79 182
e 79 214
e 79 230
e 79 237
e 79 249
e 80 84
e 80 89
e 80 98
e 80 103
e 80 113
e 80 140
e 80 145
e 80 155
e 80 162
e 80 181
e 80 188
e 80 226
e 80 233
e 80 235
e 80 243
e 81 86
e 81 91
e 81 112
e 81 116
e 81 145
e 81 153
e 81 157
e 81 162
e 81 163
e 81 200
e 81 202
e 81 223
e 81 228
e 81 231
e 81 246
e 82 85
e 82 98
e 82 116
e 82 118
e 82 145
e 82 163
e 82 164
e 82 194
e 82 196
e 82 208
e 82 228
e 83 85
e 83 91
e 83 96
e 83 97
e 83 99
e 83 124
e 83 129
e 83 136
e 83 138
e 83 149
e 83 151
e 83 167
e 83 183
e 83 214
e 83 227
e 84 88
e 84 94
e 84 114
e 84 128
e 84 129
e 84 140
e 84 147
e 84 149
e 84 198
e 84 207
e 84 213
e 84 227
e 84 232
e 84 239
e 84 246
e 84 248
e 84 249
e 85 87
e 85 94
e 85 97
e 85 99
e 85 100
e 85 102
e 85 106
e 85 113
e 85 117
e 85 118
e 85 123
e 85 125
e 85 127
e 85 138
e 85 139
e 85 177
e 85 185
e 85 186
e 85 191
e 85 199
e 85 205
e 85 211
e 85 213
e 85 235
e 85 246
e 86 89
e 86 90
e 86 93
e 86 101
e 86 103
e 86 123
e 86 129
e 86 142
e 86 144
e 86 155
e 86 161
e 86 184
e 86 190
e 86 205
e 86 218
e 86 223
e 87 88
e 87 93
e 87 97
e 87 121
e 87 127
e 87 134
e 87 165
e 87 169
e 87 170
e 87 208
e 87 226
e 87 229
e 87 233
e 88 105
e 88 107
e 88 130
e 88 194
e 88 200
e 88 219
e 89 90
e 89 111
e 89 113
e 89 127
e 89 141
e 89 142
e 89 152
e 89 153
e 89 159
e 89 173
e 89 179
e 89 197
e 89 198
e 89 209
e 89 212
e 89 224
e 89 244
e 89 245
e 90 112
e 90 114
e 90 117
e 90 124
e 90 136
e 90 138
e 90 156
e 90 158
e 90 160
e 90 176
e 90 185
e 90 206
e 90 235
e 90 245
e 91 93
e 91 95
e 91 96
e 91 101
e 91 107
e 91 112
e 91 120
e 91 134
e 91 137
e 91 142
e 91 146
e 91 153
e 91 160
e 91 161
e 91 168
e 91 175
e 91 180
e 91 181
e 91 186
e 91 192
e 91 234
e 91 245
e 92 95
e 92 96
e 92 110
e 92 121
e 92 126
e 92 134
e 92 141
e 92 149
e 92 158
e 92 213
e 92 218
e 92 228
e 92 235
e 92 242
e 92 245
e 93 95
e 93 97
e 93 122
e 93 132
e 93 135
e 93 136
e 93 147
e 93 157
e 93 163
e 93 188
e 93 209
e 93 213
e 93 221
e 94 97
e 94 98
e 94 112
e 94 116
e 94 117
e 94 121
e 94 152
e 94 163
e 94 166
e 94 179
e 94 180
e 94 182
e 94 192
e 94 195
e 94 211
e 94 217
e 94 233
e 95 100
e 95 102
e 95 127
e 95 130
e 95 166
e 95 181
e 95 186
e 95 196
e 95 205
e 95 219
e 95 221
e 95 225
e 95 237
e 95 242
e 96 97
e 96 101
e 96 124
e 96 130
e 96 131
e 96 145
e 96 154
e 96 174
e 96 181
e 96 201
e 96 215
e 96 220
e 96 229
e 97 114
e 97 132
e 97 133
e 97 140
e 97 150
e 97 155
e 97 160
e 97 191
e 97 202
e 97 220
e 98 104
e 98 113
e 98 119
e 98 128
e 98 131
e 98 146
e 98 197
e 98 217
e 98 221
e 98 229
e 99 129
e 99 136
e 99 139
e 99 148
e 99 155
e 99 165
e 99 173
e 99 174
e 99 196
e 99 209
e 99 210
e 99 220
e 99 237
e 99 248
e 100 133
e 100 147
e 100 155
e 100 163
e 100 188
e 100 210
e 100 223
e 101 107
e 101 110
e 101 112
e 101 124
e 101 154
e 101 157
e 101 161
e 101 167
e 101 170
e 101 172
e 101 173
e 101 182
e 101 190
e 101 220
e 101 221
e 101 230
e 101 231
e 101 235
e 101 240
e 101 247
e 102 124
e 102 156
e 102 164
e 102 168
e 102 206
e 102 221
e 102 239
e 102 243
e 103 104
e 103 133
e 103 135
e 103 151
e 103 155
e 103 162
e 103 170
e 103 193
e 103 201
e 103 203
e 103 211
e 103 217
e 103 226
e 103 227
e 103 245
e 104 108
e 104 110
e 104 114
e 104 130
e 104 174
e 104 245
e 104 248
e 105 110
e 105 124
e 105 141
e 105 189
e 105 191
e 105 198
e 105 204
e 105 212
e 105 222
e 105 234
e 105 235
e 106 108
e 106 113
e 106 128
e 106 137
e 106 138
e 106 148
e 106 161
e 106 167
e 106 171
e 106 200
e 106 242
e 106 249
e 107 109
e 107 121
e 107 151
e 107 154
e 107 166
e 107 188
e 107 230
e 107 240
e 108 112
e 108 117
e 108 128
e 108 130
e 108 147
e 108 196
e 108 211
e 108 233
e 108 247
e 109 111
e 109 118
e 109 125
e 109 129
e 109 152
e 109 183
e 109 195
e 109 197
e 110 112
e 110 122
e 110 126
e 110 137
e 110 162
e 110 174
e 110 194
e 110 206
e 110 212
e 110 224
e 111 118
e 111 123
e 111 131
e 111 136
e 111 148
e 111 170
e 111 171
e 111 176
e 111 178
e 111 229
e 111 241
e 111 245
e 112 118
e 112 123
e 112 126
e 112 146
e 112 147
e 112 148
e 112 176
e 112 177
e 112 199
e 112 205
e 112 227
e 112 230
e 112 239
e 113 134
e 113 150
e 113 159
e 113 163
e 113 212
e 113 235
e 113 239
e 114 144
e 114 163
e 114 165
e 114 166
e 114 167
e 114 171
e 114 181
e 114 187
e 114 193
e 114 200
e 114 243
e 114 247
e 115 132
e 115 140
e 115 141
e 115 181
e 115 182
e 115 183
e 115 189
e 115 194
e 115 202
e 115 203
e 116 117
e 116 121
e 116 131
e 116 173
e 116 194
e 116 234
e 117 127
e 117 136
e 117 142
e 117 148
e 117 150
e 117 190
e 117 221
e 117 231
e 117 246
e 118 132
e 118 134
e 118 135
e 118 139
e 118 146
e 118 154
e 118 164
e 118 169
e 118 195
e 118 201
e 118 223
e 118 242
e 119 122
e 119 133
e 119 137
e 119 142
e 119 154
e 119 172
e 119 188
e 119 209
e 119 219
e 119 249
e 120 121
e 120 171
e 120 175
e 120 201
e 120 234
e 120 238
e 120 243
e 121 148
e 121 155
e 121 165
e 121 189
e 122 135
e 122 151
e 122 186
e 122 187
e 122 211
e 122 219
e 122 227
e 122 231
e 123 138
e 123 144
e 123 172
e 123 179
e 123 195
e 123 210
e 123 215
e 123 234
e 123 238
e 123 241
e 124 125
e 124 127
e 124 137
e 124 142
e 124 143
e 124 152
e 124 156
e 124 173
e 124 198
e 124 200
e 124 218
e 124 234
e 125 131
e 125 168
e 125 171
e 125 184
e 125 187
e 125 211
e 125 239
e 126 146
e 126 177
e 126 178
e 126 194
e 126 212
e 126 241
e 126 242
e 127 133
e 127 162
e 127 181
e 127 202
e 127 204
e 127 216
e 127 225
e 127 242
e 128 132
e 128 133
e 128 163
e 128 198
e 128 213
e 128 216
e 128 220
e 129 138
e 129 143
e 129 146
e 129 156
e 129 164
e 129 178
e 129 196
e 129 225
e 129 232
e 129 235
e 129 248
e 130 135
e 130 145
e 130 152
e 130 169
e 130 201
e 130 213
e 131 137
e 131 140
e 131 158
e 132 172
e 132 196
e 132 206
e 132 218
e 132 232
e 132 248
e 133 146
e 133 156
e 133 160
e 133 169
e 133 184
e 133 186
e 133 195
e 133 210
e 134 139
e 134 145
e 134 150
e 134 164
e 134 186
e 134 201
e 134 223
e 134 228
e 134 235
e 134 249
e 135 153
e 135 157
e 135 158
e 135 162
e 135 181
e 137 146
e 137 181
e 137 217
e 137 233
e 138 159
e 138 167
e 138 184
e 138 192
e 138 218
e 138 223
e 138 237
e 139 167
e 139 172
e 140 146
e 140 162
e 140 233
e 140 245
e 141 189
e 141 194
e 141 201
e 141 205
e 141 212
e 141 214
e 141 216
e 141 235
e 141 243
e 141 245
e 142 159
e 143 151
e 143 160
e 143 175
e 143 182
e 143 190
e 143 229
e 143 231
e 143 236
e 143 247
e 144 170
e 144 174
e 144 179
e 144 226
e 145 150
e 145 165
e 145 167
e 145 216
e 145 233
e 146 216
e 146 229
e 146 231
e 147 179
e 147 194
e 147 208
e 148 176
e 148 196
e 148 208
e 148 249
e 149 176
e 149 184
e 150 173
e 150 182
e 150 188
e 150 193
e 150 216
e 150 217
e 150 230
e 150 231
e 151 153
e 151 177
e 151 180
e 151 185
e 151 191
e 151 204
e 151 249
e 152 162
e 152 196
e 153 155
e 153 171
e 153 181
e 153 221
e 153 223
e 153 230
e 153 249
e 154 157
e 154 175
e 154 177
e 154 201
e 154 202
e 156 157
e 156 160
e 156 166
e 156 170
e 156 217
e 156 234
e 156 241
e 157 163
e 157 180
e 157 189
e 157 199
e 157 222
e 157 236
e 157 238
e 158 165
e 158 197
e 158 217
e 158 241
e 159 169
e 159 183
e 159 193
e 159 200
e 159 202
e 159 206
e 159 214
e 159 223
e 160 167
e 160 179
e 160 203
e 160 207
e 160 244
e 161 175
e 161 239
e 162 173
e 162 184
e 162 191
e 162 219
e 163 186
e 163 220
e 163 238
e 164 165
e 164 187
e 164 189
e 164 196
e 164 204
e 164 211
e 164 214
e 164 218
e 165 189
e 166 169
e 166 178
e 166 236
e 167 172
e 167 232
e 168 175
e 168 179
e 168 189
e 168 204
e 168 207
e 168 235
e 169 177
e 169 195
e 169 218
e 169 225
e 169 237
e 170 176
e 170 184
e 170 188
e 170 197
e 170 227
e 170 229
e 170 243
e 171 173
e 171 178
e 171 185
e 171 198
e 171 212
e 171 215
e 171 218
e 171 240
e 171 243
e 172 228
e 173 174
e 173 175
e 173 185
e 173 231
e 173 238
e 173 244
e 174 183
e 174 189
e 174 224
e 175 178
e 175 188
e 175 191
e 175 209
e 175 243
e 175 248
e 177 210
e 177 236
e 178 186
e 178 192
e 178 231
e 179 183
e 179 186
e 179 194
e 179 214
e 179 224
e 180 193
e 180 209
e 180 218
e 180 224
e 180 238
e 181 219
e 181 237
e 182 221
e 182 234
e 183 203
e 184 197
e 184 222
e 184 232
e 185 187
e 186 192
e 186 206
e 186 209
e 186 238
e 187 192
e 187 198
e 187 207
e 187 208
e 187 210
e 187 219
e 187 224
e 187 226
e 187 243
e 188 205
e 188 220
e 188 225
e 188 230
e 189 190
e 189 202
e 189 223
e 190 209
e 190 212
e 190 233
e 191 199
e 192 209
e 192 212
e 194 199
e 194 207
e 194 213
e 194 223
e 195 205
e 197 217
e 197 247
e 198 201
e 198 211
e 198 245
e 199 207
e 200 207
e 200 216
e 200 218
e 201 203
e 201 208
e 201 212
e 202 222
e 202 228
e 203 213
e 203 245
e 204 213
e 204 224
e 206 238
e 206 247
e 207 208
e 208 235
e 209 210
e 209 221
e 210 229
e 211 231
e 212 218
e 212 231
e 212 248
e 214 215
e 214 218
e 214 227
e 215 218
e 215 223
e 215 233
e 215 234
e 215 243
e 215 246
e 216 217
e 216 228
e 216 230
e 216 232
e 216 235
e 216 246
e 219 222
e 220 221
e 220 237
e 222 224
e 222 243
e 224 236
e 225 243
e 225 244
e 226 246
e 227 231
e 227 248
e 228 245
e 229 232
e 230 238
e 231 238
e 231 249
e 234 242
e 236 240
e 236 241
e 236 242
e 242 246
e 245 248
